73 394
191 507
108 598
563 147
605 371
474 193
82 399
598 353
452 54
210 191
428 34
400 156
424 601
267 391
477 474
512 82
422 601
471 46
80 9
431 225
60 609
176 541
258 469
455 402
425 461
290 475
319 403
101 36
129 120
446 376
64 381
406 60
165 86
8 84
533 534
21 239
475 342
570 198
327 512
210 127
538 516
273 290
447 6
573 392
461 375
124 391
437 212
157 354
133 396
407 452
419 207
104 258
12 500
167 224
525 605
518 504
74 405
350 125
541 426
104 36
473 296
175 283
141 61
125 109
454 172
304 495
383 437
2 553
437 85
79 210
407 384
3 567
22 132
432 1
19 551
